(assert (forall ((pkt_0_4_6_0  Int  )(state_group_0_state_0_5_7_0  Int  )(state_group_0_state_1_6_8_0  Int  )) (let ((_n0 state_group_0_state_0_5_7_0 ))
(let ((_n1 2 ))
(let ((_n2 (ite (=  _n0  1)  _n1   _n0  ) ))
(let ((_n3 state_group_0_state_1_6_8_0 ))
(let ((_n4 false ))
(let ((_n5 (ite (=  _n0  1)  (ite  _n4  1 0)   _n3  ) ))
(let ((_n6 3 ))
(let ((_n7 (ite (=  _n5  999)  _n6   _n2  ) ))
(let ((_n8 (ite (=  _n2  2)  _n7   _n2  ) ))
(let ((_n9 true ))
(let ((_n10 (=   _n0   (ite  _n9  1 0) ) ))
(let ((_n11 (ite (=  _n0  1)  (ite  _n4  1 0)   _n0  ) ))
(let ((_n12 (=   _n11   _n1 ) ))
(let ((_n13 (ite (=  _n0  1)  _n4   _n12  ) ))
(let ((_n14 999 ))
(let ((_n15 (not  _n13 ) ))
(let ((_n16 (or   _n15   _n10 ) ))
(let ((_n17 (ite  _n16   (ite  _n4  1 0)   _n3  ) ))
(let ((_n18 (=   _n17   _n14 ) ))
(let ((_n19 (not  _n18 ) ))
(let ((_n20 (not  _n16 ) ))
(let ((_n21 (and   _n20   _n19 ) ))
(let ((_n22 (or   _n21   _n16 ) ))
(let ((_n23 (ite  _n22   (ite  _n4  1 0)   _n1  ) ))
(let ((_n24 (-  _n23 )))
(let ((_n25 pkt_0_4_6_0 ))
(let ((_n26 (ite  _n22   (ite  _n4  1 0)   _n25  ) ))
(let ((_n27 (+   _n26   _n24 ) ))
(let ((_n28 (ite  _n22   (ite  _n4  1 0)   _n27  ) ))
(let ((_n29 (+   _n0   _n28 ) ))
(let ((_n30 (not  _n21 ) ))
(let ((_n31 (or   _n30   _n16 ) ))
(let ((_n32 (not  _n31 ) ))
(let ((_n33 (-  (ite  _n32  1 0) )))
(let ((_n34 (ite  _n31   (ite  _n4  1 0)   _n6  ) ))
(let ((_n35 (+   _n34   _n33 ) ))
(let ((_n36 (ite  _n31   (ite  _n4  1 0)   _n35  ) ))
(let ((_n37 (ite  _n31   _n0   (ite  _n4  1 0)  ) ))
(let ((_n38 (+   _n37   _n36 ) ))
(let ((_n39 (ite (=  (ite  _n21  1 0)  1)  _n38   _n29  ) ))
(let ((_n40 (ite (=  (ite  _n13  1 0)  1)  _n39   _n0  ) ))
(let ((_n41 (ite (=  _n0  1)  _n25   (ite  _n4  1 0)  ) ))
(let ((_n42 (-  _n41 )))
(let ((_n43 (ite (=  _n0  1)  _n0   (ite  _n4  1 0)  ) ))
(let ((_n44 (+   _n43   _n42 ) ))
(let ((_n45 (=   _n44   (ite  _n9  1 0) ) ))
(let ((_n46 (not  _n45 ) ))
(let ((_n47 (and   _n10   _n46 ) ))
(let ((_n48 (not  _n10 ) ))
(let ((_n49 (or   _n47   _n48 ) ))
(let ((_n50 (ite  _n49   (ite  _n4  1 0)   _n25  ) ))
(let ((_n51 (not  _n49 ) ))
(let ((_n52 (+   (ite  _n51  1 0)   _n50 ) ))
(let ((_n53 (ite  _n49   (ite  _n4  1 0)   _n52  ) ))
(let ((_n54 (+   _n0   _n53 ) ))
(let ((_n55 (and   _n47   _n10 ) ))
(let ((_n56 (ite  _n55   _n1   (ite  _n4  1 0)  ) ))
(let ((_n57 (ite  _n55   (ite  _n4  1 0)   _n0  ) ))
(let ((_n58 (+   _n57   _n56 ) ))
(let ((_n59 (ite (=  (ite  _n47  1 0)  1)  _n58   _n54  ) ))
(let ((_n60 (ite (=  (ite  _n10  1 0)  1)  _n59   _n40  ) ))
(let ((_n61 (=   _n60   _n8 ) ))
(let ((_n63 (+   _n5   (ite  _n9  1 0) ) ))
(let ((_n64 (ite (=  _n2  2)  _n63   _n5  ) ))
(let ((_n65 (-  _n26 )))
(let ((_n66 4 ))
(let ((_n67 (ite  _n22   (ite  _n4  1 0)   _n66  ) ))
(let ((_n68 (+   _n67   _n65 ) ))
(let ((_n69 (ite  _n22   (ite  _n4  1 0)   _n68  ) ))
(let ((_n70 (+   _n3   _n69 ) ))
(let ((_n71 (+   _n3   (ite  _n32  1 0) ) ))
(let ((_n72 (ite (=  (ite  _n21  1 0)  1)  _n71   _n70  ) ))
(let ((_n73 (ite (=  (ite  _n13  1 0)  1)  _n72   _n3  ) ))
(let ((_n74 (ite  _n49   _n3   (ite  _n4  1 0)  ) ))
(let ((_n75 (+   _n74   (ite  _n51  1 0) ) ))
(let ((_n76 (-  (ite  _n55  1 0) )))
(let ((_n77 (+   _n56   _n76 ) ))
(let ((_n78 (ite  _n55   _n77   (ite  _n4  1 0)  ) ))
(let ((_n79 (ite  _n55   (ite  _n4  1 0)   _n3  ) ))
(let ((_n80 (+   _n79   _n78 ) ))
(let ((_n81 (ite (=  (ite  _n47  1 0)  1)  _n80   _n75  ) ))
(let ((_n82 (ite (=  (ite  _n10  1 0)  1)  _n81   _n73  ) ))
(let ((_n83 (=   _n82   _n64 ) ))
(implies  (and (and (>= state_group_0_state_1_6_8_0 0) (< state_group_0_state_1_6_8_0 1024 ))  (and (and (>= state_group_0_state_0_5_7_0 0) (< state_group_0_state_0_5_7_0 1024 ))  (and (>= pkt_0_4_6_0 0) (< pkt_0_4_6_0 1024 )) ) )   (and  _n61  _n83 )  ))))))))))))))))))))))))))))))))))))))))))))))))))))))))))))))))))))))))))))))))))))))
(check-sat)
(get-model)
(exit)